25
1 0 7
2 0 14
2 1 11
3 0 2
3 1 34
3 2 48
4 0 23
4 1 1
4 2 42
4 3 33
5 0 28
5 1 22
5 2 34
5 3 46
5 4 37
6 0 25
6 1 31
6 2 30
6 3 47
6 4 13
6 5 23
7 0 16
7 1 26
7 2 29
7 3 11
7 4 37
7 5 9
7 6 25
8 0 10
8 1 27
8 2 3
8 3 3
8 4 22
8 5 35
8 6 48
8 7 48
9 0 11
9 1 39
9 2 2
9 3 43
9 4 40
9 5 8
9 6 26
9 7 35
9 8 18
10 0 38
10 1 12
10 2 47
10 3 29
10 4 47
10 5 46
10 6 4
10 7 33
10 8 39
10 9 43
11 0 10
11 1 24
11 2 30
11 3 3
11 4 9
11 5 20
11 6 33
11 7 2
11 8 45
11 9 38
11 10 14
12 0 8
12 1 39
12 2 5
12 3 46
12 4 42
12 5 48
12 6 39
12 7 47
12 8 8
12 9 32
12 10 12
12 11 46
13 0 32
13 1 37
13 2 19
13 3 46
13 4 22
13 5 21
13 6 40
13 7 8
13 8 46
13 9 41
13 10 22
13 11 39
13 12 25
14 0 47
14 1 23
14 2 31
14 3 16
14 4 7
14 5 6
14 6 26
14 7 50
14 8 45
14 9 38
14 10 11
14 11 21
14 12 13
14 13 30
15 0 6
15 1 36
15 2 3
15 3 36
15 4 14
15 5 22
15 6 43
15 7 18
15 8 22
15 9 43
15 10 50
15 11 30
15 12 10
15 13 39
15 14 21
16 0 46
16 1 18
16 2 16
16 3 5
16 4 7
16 5 2
16 6 32
16 7 9
16 8 7
16 9 17
16 10 15
16 11 12
16 12 38
16 13 22
16 14 11
16 15 8
17 0 5
17 1 19
17 2 42
17 3 34
17 4 16
17 5 13
17 6 14
17 7 28
17 8 16
17 9 2
17 10 35
17 11 37
17 12 46
17 13 35
17 14 48
17 15 12
17 16 34
18 0 8
18 1 11
18 2 28
18 3 11
18 4 10
18 5 11
18 6 27
18 7 41
18 8 27
18 9 25
18 10 29
18 11 35
18 12 28
18 13 25
18 14 2
18 15 48
18 16 16
18 17 24
19 0 21
19 1 28
19 2 4
19 3 39
19 4 46
19 5 21
19 6 17
19 7 25
19 8 8
19 9 29
19 10 48
19 11 10
19 12 8
19 13 18
19 14 8
19 15 32
19 16 5
19 17 21
19 18 19
20 0 43
20 1 11
20 2 23
20 3 5
20 4 23
20 5 1
20 6 5
20 7 11
20 8 10
20 9 32
20 10 37
20 11 43
20 12 40
20 13 41
20 14 45
20 15 14
20 16 28
20 17 12
20 18 6
20 19 17
21 0 38
21 1 38
21 2 15
21 3 4
21 4 21
21 5 5
21 6 18
21 7 44
21 8 33
21 9 45
21 10 19
21 11 21
21 12 36
21 13 6
21 14 33
21 15 33
21 16 24
21 17 17
21 18 18
21 19 8
21 20 46
22 0 21
22 1 33
22 2 35
22 3 3
22 4 27
22 5 30
22 6 50
22 7 3
22 8 19
22 9 5
22 10 46
22 11 37
22 12 24
22 13 30
22 14 25
22 15 29
22 16 22
22 17 36
22 18 38
22 19 48
22 20 46
22 21 24
23 0 48
23 1 13
23 2 23
23 3 4
23 4 46
23 5 6
23 6 22
23 7 30
23 8 28
23 9 40
23 10 2
23 11 28
23 12 33
23 13 27
23 14 31
23 15 33
23 16 26
23 17 25
23 18 13
23 19 2
23 20 9
23 21 26
23 22 1
24 0 35
24 1 15
24 2 35
24 3 21
24 4 3
24 5 31
24 6 32
24 7 11
24 8 40
24 9 48
24 10 8
24 11 8
24 12 25
24 13 2
24 14 7
24 15 36
24 16 32
24 17 27
24 18 19
24 19 33
24 20 41
24 21 8
24 22 21
24 23 2
